Optimal - objective value 2181.00000000
      1 x_1                     1                       0
      6 x_6                     1                      10
      8 x_8                     1                       8
     16 x_16                    1         26.1428571428571
     19 x_19                    1                       0
     26 x_26                    1                      23
     29 x_29                    1                      10
     31 x_31                    1                     -13
     38 x_38                    1                       0
     42 x_42                    1                      25
     45 x_45                    1                      27
     53 x_53                    1                      -1
     59 x_59                    1         21.1428571428571
     64 x_64                    1                      11
     67 x_67                    1                       6
     72 x_72                    1                     -14
     78 x_78                    1         -17.5714285714286
     82 x_82                    1         17.4285714285714
     89 x_89                    1         1.57142857142857
     91 x_91                    1                       0
     96 x_96                    1                       7
     98 x_98                    1                       7
    102 x_102                   1                       0
    109 x_109                   1         34.5714285714286
    114 x_114                   1                      -6
    116 x_116                   1                      22
    121 x_121                   1                      14
    124 x_124                   1                       5
    126 x_126                   1                       0
    133 x_133                   1                      28
    135 x_135                   1         1.57142857142857
    142 x_142                   1                     -12
    144 x_144                   1                       0
    147 x_147                   1                       0
    152 x_152                   1         11.4285714285714
    157 x_157                   1                     -12
    163 x_163                   1                       0
    167 x_167                   1                       0
    174 x_174                   1                       0
    176 x_176                   1                       0
    183 x_183                   1                       0
    188 x_188                   1         14.1428571428571
    189 x_189                   1                      17
    198 x_198                   1                       0
    201 x_201                   1                      14
    202 x_202                   1                      24
    208 x_208                   1                      -7
    211 x_211                   1                       0
    217 x_217                   1                      21
    219 x_219                   1                       2
    225 x_225                   1                     -10
    228 x_228                   1                      29
    232 x_232                   1                      -7
    236 x_236                   1                      31
    241 x_241                   1                       0
    243 x_243                   1                      19
    247 x_247                   1         3.14285714285714
    252 x_252                   1         -47.8571428571429
    258 x_258                   1                      17
    261 x_261                   1                      13
    265 x_265                   1                      13
    269 x_269                   1                       0
    271 x_271                   1                       0
    279 x_279                   1                      17
    280 x_280                   1                       0
    285 x_285                   1                       5
    288 x_288                   1                      25
    291 x_291                   1                      29
    297 x_297                   1                      29
    298 x_298                   1                      15
    307 x_307                   1                       9
    311 x_311                   1                       0
    312 x_312                   1                       0
    319 x_319                   1                      21
    323 x_323                   1                       9
    332 x_332                   1                     -16
    335 x_335                   1                       0
    341 x_341                   1                      14
    346 x_346                   1                       0
    349 x_349                   1                       0
    352 x_352                   1         -8.14285714285714
    360 x_360                   1                       7
    366 x_366                   1         15.4285714285714
    371 x_371                   1                       0
    373 x_373                   1                     -16
    376 x_376                   1                       0
    378 x_378                   1                       0
    385 x_385                   1                       3
    389 x_389                   1                      21
    395 x_395                   1                       6
    397 x_397                   1         6.42857142857143
    402 x_402                   1                      18
    404 x_404                   1                      19
    407 x_407                   1                      26
    411 x_411                   1                      33
    418 x_418                   1                      25
    420 x_420                   1                      24
    426 x_426                   1                      22
    431 x_431                   1         30.8571428571429
    437 x_437                   1                      30
Optimal - objective value 2181.00000000
      1 x_1                     1                       0
      6 x_6                     1                      10
      8 x_8                     1                       8
     16 x_16                    1         26.1428571428571
     19 x_19                    1                       0
     26 x_26                    1                      23
     29 x_29                    1                      10
     31 x_31                    1                     -13
     38 x_38                    1                       0
     42 x_42                    1                      25
     45 x_45                    1                      27
     53 x_53                    1                      -1
     59 x_59                    1         21.1428571428571
     64 x_64                    1                      11
     67 x_67                    1                       6
     72 x_72                    1                     -14
     78 x_78                    1         -17.5714285714286
     82 x_82                    1         17.4285714285714
     89 x_89                    1         1.57142857142857
     91 x_91                    1                       0
     96 x_96                    1                       7
     98 x_98                    1                       7
    102 x_102                   1                       0
    109 x_109                   1         34.5714285714286
    114 x_114                   1                      -6
    116 x_116                   1                      22
    121 x_121                   1                      14
    124 x_124                   1                       5
    126 x_126                   1                       0
    133 x_133                   1                      28
    135 x_135                   1         1.57142857142857
    142 x_142                   1                     -12
    144 x_144                   1                       0
    147 x_147                   1                       0
    152 x_152                   1         11.4285714285714
    157 x_157                   1                     -12
    163 x_163                   1                       0
    167 x_167                   1                       0
    174 x_174                   1                       0
    176 x_176                   1                       0
    183 x_183                   1                       0
    188 x_188                   1         14.1428571428571
    189 x_189                   1                      17
    198 x_198                   1                       0
    201 x_201                   1                      14
    202 x_202                   1                      24
    208 x_208                   1                      -7
    211 x_211                   1                       0
    217 x_217                   1                      21
    219 x_219                   1                       2
    225 x_225                   1                     -10
    228 x_228                   1                      29
    232 x_232                   1                      -7
    236 x_236                   1                      31
    241 x_241                   1                       0
    243 x_243                   1                      19
    247 x_247                   1         3.14285714285714
    252 x_252                   1         -47.8571428571429
    258 x_258                   1                      17
    261 x_261                   1                      13
    265 x_265                   1                      13
    269 x_269                   1                       0
    271 x_271                   1                       0
    279 x_279                   1                      17
    280 x_280                   1                       0
    285 x_285                   1                       5
    288 x_288                   1                      25
    291 x_291                   1                      29
    297 x_297                   1                      29
    298 x_298                   1                      15
    307 x_307                   1                       9
    311 x_311                   1                       0
    312 x_312                   1                       0
    319 x_319                   1                      21
    323 x_323                   1                       9
    332 x_332                   1                     -16
    335 x_335                   1                       0
    341 x_341                   1                      14
    346 x_346                   1                       0
    349 x_349                   1                       0
    352 x_352                   1         -8.14285714285714
    360 x_360                   1                       7
    366 x_366                   1         15.4285714285714
    371 x_371                   1                       0
    373 x_373                   1                     -16
    376 x_376                   1                       0
    378 x_378                   1                       0
    385 x_385                   1                       3
    389 x_389                   1                      21
    395 x_395                   1                       6
    397 x_397                   1         6.42857142857143
    402 x_402                   1                      18
    404 x_404                   1                      19
    407 x_407                   1                      26
    411 x_411                   1                      33
    418 x_418                   1                      25
    420 x_420                   1                      24
    426 x_426                   1                      22
    431 x_431                   1         30.8571428571429
    437 x_437                   1                      30
